150 9057974
136 135 124 37 138 50 63 149 78 129 98 116 2 128 82 72 97 3 61 55 4 7 110 103 88 68 109 96 144 106 113 25 148 40 114 83 127 111 122 133 66 108 77 32 112 70 46 36 79 104 76 150 5 43 30 131 59 33 123 20 34 132 24 90 143 39 54 121 47 35 10 140 11 60 9 42 80 13 12 29 27 105 1 94 48 58 100 26 91 137 87 8 16 130 69 92 141 71 14 81 64 53 134 142 51 125 45 84 49 28 89 18 41 95 74 57 85 23 115 93 21 117 31 44 19 145 52 67 146 139 86 6 73 17 120 65 102 126 107 119 38 56 118 99 101 15 75 62 22 147 
